% File represents an instance of a Composite Structure problem to be solved by a CP framework
% Created on 2025-03-26 10:41:26.875
T = 56;
n = 16;
m = 24;
edges = [(2, 1),
(6, 5),
(9, 10),
(14, 13),
(3, 2),
(7, 6),
(11, 10),
(15, 14),
(3, 4),
(8, 7),
(12, 11),
(15, 16),
(5, 1),
(9, 5),
(9, 13),
(6, 2),
(6, 10),
(14, 10),
(3, 7),
(7, 11),
(15, 11),
(8, 4),
(8, 12),
(12, 16)];
counts = [|18, 2, 18, 6,
|18, 6, 18, 6,
|18, 8, 18, 10,
|18, 8, 18, 6,
|18, 4, 18, 6,
|18, 6, 18, 8,
|18, 6, 18, 10,
|18, 10, 18, 10,
|18, 8, 18, 8,
|18, 4, 18, 6,
|18, 6, 18, 8,
|18, 10, 18, 8,
|18, 8, 18, 6,
|18, 10, 18, 6,
|18, 10, 18, 10,
|18, 10, 18, 6|];
